1
1000
120
499 1
493 1
493 1
491 1
491 1
488 1
485 1
483 1
472 1
465 1
465 1
463 1
456 1
450 1
449 1
443 1
443 1
435 1
429 1
424 1
422 1
412 1
408 1
401 1
400 1
400 1
400 1
399 1
395 1
393 1
385 1
383 1
378 1
377 1
377 1
374 1
372 1
372 1
365 1
361 1
360 1
355 1
354 1
350 1
349 1
347 1
344 1
343 1
338 1
337 1
332 1
329 1
326 1
325 1
320 1
313 1
311 1
310 1
310 1
308 1
308 1
305 1
301 1
300 1
297 1
296 1
296 1
295 1
292 1
291 1
291 1
288 1
288 1
288 1
287 1
281 1
280 1
277 1
276 1
275 1
275 1
275 1
273 1
271 1
269 1
268 1
268 1
268 1
267 1
266 1
266 1
266 1
265 1
264 1
264 1
264 1
263 1
262 1
262 1
262 1
261 1
261 1
260 1
258 1
258 1
257 1
256 1
256 1
256 1
256 1
255 1
253 1
253 1
252 1
252 1
251 1
251 1
251 1
251 1
250 1
